c User generated cnf file
p cnf 9 52
-9 5 1 0 
8 4 -8 0 
3 7 -6 0 
4 9 -9 0 
6 6 -5 0 
4 3 -1 0 
-5 5 7 0 
2 -3 1 0 
1 -7 3 0 
-8 5 9 0 
-7 3 6 0 
4 -2 7 0 
8 3 -2 0 
2 -7 2 0 
-4 4 2 0 
5 3 -1 0 
8 3 -9 0 
1 -6 7 0 
3 7 -5 0 
4 3 -9 0 
4 -4 4 0 
5 9 -2 0 
8 -4 9 0 
4 9 -6 0 
-8 9 3 0 
6 -6 2 0 
-8 7 1 0 
3 -3 8 0 
8 4 -1 0 
9 -8 3 0 
3 -3 5 0 
8 -9 7 0 
7 -9 3 0 
-3 3 1 0 
-7 6 3 0 
2 -9 2 0 
7 4 -4 0 
4 3 -9 0 
-3 5 6 0 
9 8 -4 0 
-4 5 4 0 
8 -8 3 0 
-7 4 6 0 
1 -2 4 0 
-9 8 3 0 
1 5 -3 0 
4 7 -4 0 
7 4 -6 0 
9 4 -1 0 
-8 6 2 0 
-6 9 2 0 
9 1 -3 0 
